NAME : portcgen-24-4
COMMENT : portcgen N=24, seed=4
TYPE : TSP
DIMENSION : 24
EDGE_WEIGHT_TYPE : EUC_2D
NODE_COORD_SECTION
1 50361 -307758
2 -95736 15753
3 167217 -463496
4 72595 -174601
5 -164484 -101284
6 -104664 -202544
7 5299 26248
8 155985 -199117
9 143111 -260886
10 93669 181864
11 316063 338484
12 5326 14263
13 -309786 -195277
14 -183927 -52254
15 166227 -93629
16 -176797 -116438
17 240081 -113381
18 -176601 -100131
19 -10526 -236027
20 -304618 178455
21 33599 48532
22 117077 206877
23 -79522 -356950
24 383544 108492
